750
100 100
1 70 361
2 70 675
3 70 422
4 70 976
5 70 398
6 70 205
7 70 153
8 70 922
9 70 902
10 70 701
11 70 378
12 70 339
13 70 57
14 70 741
15 70 159
16 69 663
17 69 683
18 69 906
19 69 331
20 69 22
21 69 869
22 69 327
23 69 571
24 69 133
25 69 253
26 69 886
27 69 881
28 69 529
29 69 425
30 69 451
31 68 154
32 68 464
33 68 90
34 68 910
35 68 484
36 68 356
37 68 363
38 68 546
39 68 541
40 68 798
41 68 292
42 68 993
43 68 827
44 68 33
45 68 658
46 67 760
47 67 226
48 67 480
49 67 560
50 67 766
51 67 378
52 67 668
53 67 9
54 67 718
55 67 679
56 67 70
57 67 621
58 67 801
59 67 107
60 67 66
61 66 117
62 66 713
63 66 273
64 66 476
65 66 228
66 66 847
67 66 503
68 66 446
69 66 649
70 65 462
71 65 760
72 65 647
73 65 9
74 65 792
75 65 876
76 65 55
77 65 420
78 65 747
79 65 618
80 65 717
81 65 529
82 65 850
83 65 465
84 64 532
85 64 669
86 64 996
87 64 864
88 64 484
89 64 342
90 64 454
91 64 309
92 64 265
93 64 830
94 63 965
95 63 560
96 63 776
97 63 363
98 63 899
99 63 257
100 63 424
101 63 895
102 63 895
103 63 323
104 63 165
105 63 119
106 63 812
107 63 673
108 62 35
109 62 970
110 62 943
111 62 451
112 62 144
113 62 60
114 62 19
115 62 690
116 62 772
117 62 227
118 62 87
119 61 259
120 61 926
121 61 222
122 61 152
123 61 45
124 61 382
125 61 866
126 61 730
127 61 147
128 61 159
129 61 192
130 61 869
131 61 283
132 61 715
133 61 700
134 61 999
135 60 456
136 60 199
137 60 476
138 60 768
139 60 456
140 60 281
141 60 603
142 60 774
143 60 231
144 60 447
145 60 39
146 59 522
147 59 936
148 59 703
149 59 823
150 59 767
151 59 9
152 59 412
153 59 712
154 59 347
155 59 189
156 59 593
157 59 854
158 59 536
159 59 583
160 59 667
161 59 442
162 58 9
163 58 114
164 58 546
165 58 579
166 58 127
167 58 459
168 58 624
169 58 48
170 58 376
171 58 151
172 58 716
173 58 402
174 58 653
175 57 511
176 57 536
177 57 229
178 57 114
179 57 343
180 57 648
181 57 485
182 57 642
183 57 389
184 57 562
185 57 120
186 57 610
187 57 89
188 57 935
189 56 998
190 56 182
191 56 462
192 56 568
193 56 954
194 56 909
195 56 916
196 56 746
197 56 395
198 56 251
199 56 189
200 56 442
201 55 826
202 55 334
203 55 270
204 55 85
205 55 554
206 55 672
207 55 52
208 55 535
209 55 893
210 55 71
211 55 106
212 55 847
213 54 406
214 54 615
215 54 553
216 54 981
217 54 985
218 54 9
219 54 798
220 54 974
221 54 69
222 53 459
223 53 718
224 53 846
225 53 924
226 53 785
227 53 150
228 53 284
229 53 102
230 53 224
231 53 214
232 53 323
233 53 125
234 53 379
235 53 367
236 53 224
237 53 617
238 53 592
239 52 153
240 52 830
241 52 321
242 52 497
243 52 94
244 52 944
245 52 69
246 52 34
247 52 143
248 52 426
249 52 268
250 52 453
251 52 543
252 52 355
253 51 305
254 51 142
255 51 55
256 51 245
257 51 567
258 51 522
259 51 296
260 51 696
261 51 990
262 51 786
263 51 250
264 50 389
265 50 511
266 50 236
267 50 862
268 50 838
269 50 751
270 50 227
271 50 167
272 50 294
273 50 827
274 49 860
275 49 583
276 49 512
277 49 373
278 49 672
279 49 378
280 49 251
281 49 336
282 49 566
283 49 513
284 48 967
285 48 546
286 48 617
287 48 156
288 48 88
289 48 715
290 48 62
291 48 438
292 48 47
293 48 969
294 47 665
295 47 79
296 47 999
297 47 449
298 47 994
299 47 751
300 47 150
301 47 349
302 47 398
303 47 181
304 46 99
305 46 301
306 46 587
307 46 777
308 46 363
309 46 827
310 46 386
311 46 28
312 46 834
313 46 48
314 46 697
315 46 711
316 46 708
317 46 464
318 45 192
319 45 426
320 45 759
321 45 715
322 45 390
323 45 416
324 45 48
325 44 672
326 44 688
327 44 426
328 44 545
329 44 702
330 44 365
331 44 417
332 43 70
333 43 206
334 43 54
335 43 700
336 43 684
337 43 640
338 43 112
339 43 601
340 43 306
341 43 426
342 43 975
343 43 99
344 43 781
345 42 193
346 42 591
347 42 16
348 42 980
349 42 219
350 42 775
351 42 266
352 42 478
353 42 329
354 42 1000
355 42 360
356 42 214
357 42 925
358 42 5
359 42 529
360 42 421
361 42 307
362 41 208
363 41 263
364 41 531
365 41 388
366 41 328
367 41 662
368 41 58
369 41 172
370 41 698
371 41 878
372 41 186
373 41 262
374 41 145
375 41 603
376 41 52
377 41 379
378 41 30
379 40 464
380 40 88
381 40 201
382 40 509
383 40 634
384 40 934
385 40 546
386 40 170
387 40 866
388 40 86
389 40 594
390 40 619
391 40 897
392 40 724
393 40 731
394 40 31
395 40 43
396 40 245
397 39 590
398 39 387
399 39 841
400 39 932
401 39 371
402 39 380
403 39 591
404 39 885
405 39 740
406 39 203
407 39 263
408 39 456
409 38 155
410 38 921
411 38 416
412 38 573
413 38 382
414 38 568
415 38 392
416 38 139
417 38 98
418 38 505
419 38 7
420 38 513
421 38 168
422 38 326
423 37 567
424 37 217
425 37 143
426 37 213
427 37 738
428 37 663
429 37 849
430 37 134
431 37 166
432 37 919
433 37 883
434 36 201
435 36 141
436 36 628
437 36 21
438 36 205
439 36 836
440 36 38
441 36 958
442 36 408
443 36 153
444 36 257
445 36 760
446 36 889
447 36 886
448 36 278
449 36 106
450 36 68
451 36 35
452 35 270
453 35 1000
454 35 595
455 35 612
456 35 490
457 35 238
458 35 648
459 35 643
460 35 385
461 35 136
462 34 761
463 34 458
464 34 845
465 34 192
466 34 146
467 34 665
468 34 109
469 34 579
470 34 226
471 34 554
472 34 643
473 34 504
474 34 441
475 33 970
476 33 290
477 33 565
478 33 308
479 33 664
480 33 664
481 33 30
482 33 669
483 33 120
484 33 261
485 33 14
486 33 612
487 32 712
488 32 400
489 32 150
490 32 557
491 32 363
492 32 1000
493 32 136
494 32 971
495 31 514
496 31 663
497 31 900
498 31 231
499 31 214
500 31 171
501 31 771
502 31 274
503 31 841
504 30 832
505 30 61
506 30 884
507 30 200
508 30 847
509 30 233
510 30 230
511 30 210
512 30 335
513 30 517
514 30 909
515 30 457
516 30 250
517 30 404
518 30 208
519 30 121
520 30 285
521 29 359
522 29 850
523 29 783
524 29 64
525 29 123
526 29 253
527 29 514
528 29 104
529 29 335
530 29 39
531 29 106
532 29 827
533 29 125
534 28 568
535 28 381
536 28 367
537 28 103
538 28 627
539 28 178
540 28 98
541 28 412
542 28 792
543 28 428
544 28 301
545 28 629
546 28 232
547 28 41
548 28 6
549 28 238
550 28 402
551 27 85
552 27 276
553 27 915
554 27 391
555 27 515
556 27 873
557 27 945
558 27 901
559 27 517
560 27 452
561 27 572
562 27 439
563 27 767
564 27 377
565 27 40
566 26 452
567 26 458
568 26 689
569 26 502
570 26 801
571 26 400
572 26 576
573 26 672
574 26 868
575 26 965
576 26 128
577 26 64
578 26 597
579 25 569
580 25 810
581 25 433
582 25 535
583 25 288
584 25 734
585 25 890
586 25 909
587 25 594
588 25 67
589 25 730
590 25 227
591 25 560
592 25 367
593 24 622
594 24 723
595 24 163
596 24 213
597 24 777
598 24 443
599 24 242
600 24 583
601 24 664
602 24 26
603 24 643
604 24 301
605 23 640
606 23 206
607 23 373
608 23 467
609 23 840
610 23 47
611 23 388
612 23 780
613 23 380
614 23 259
615 23 138
616 22 606
617 22 779
618 22 198
619 22 181
620 22 724
621 22 497
622 22 94
623 22 388
624 22 828
625 22 952
626 22 143
627 22 947
628 22 403
629 21 198
630 21 461
631 21 444
632 21 333
633 21 686
634 21 315
635 21 933
636 20 117
637 20 674
638 20 69
639 20 704
640 20 402
641 20 107
642 20 7
643 20 498
644 20 457
645 20 77
646 20 965
647 20 937
648 20 835
649 19 768
650 19 159
651 19 941
652 19 243
653 19 584
654 19 602
655 18 121
656 18 668
657 18 858
658 18 908
659 18 157
660 18 892
661 18 488
662 18 97
663 18 247
664 18 218
665 18 120
666 17 776
667 17 469
668 17 290
669 17 789
670 17 905
671 17 652
672 17 404
673 17 934
674 17 518
675 17 184
676 17 161
677 16 659
678 16 543
679 16 386
680 16 974
681 16 887
682 16 351
683 16 722
684 16 172
685 16 299
686 16 169
687 16 210
688 16 228
689 16 787
690 16 507
691 16 847
692 16 133
693 15 559
694 15 467
695 15 339
696 15 272
697 15 891
698 15 722
699 14 268
700 14 563
701 14 277
702 14 86
703 14 39
704 14 896
705 14 529
706 14 369
707 14 601
708 14 464
709 14 269
710 14 184
711 14 304
712 13 294
713 13 990
714 13 859
715 13 763
716 13 802
717 13 901
718 13 933
719 13 995
720 13 714
721 12 456
722 12 249
723 12 493
724 12 102
725 12 946
726 12 457
727 12 763
728 12 191
729 11 741
730 11 33
731 11 649
732 11 281
733 11 541
734 11 591
735 11 666
736 11 130
737 11 762
738 11 709
739 10 908
740 10 90
741 10 291
742 10 942
743 10 704
744 10 757
745 10 767
746 10 825
747 10 508
748 10 182
749 10 290
750 10 786
